; benchmark generated from python API
(set-info :status unknown)
(declare-datatypes ((RealState 0)) (((RMk1 (rval1 Real)) (RMk2 (rval2 Real)))))
 (assert
 (forall ((|v17:0| Real) )(forall ((|v16:1| Real) )(forall ((|v15:2| Real) )(forall ((|v14:3| Real) )(forall ((|v13:4| Real) )(forall ((|v12:5| Real) )(exists ((|v11:6_st| RealState) (val!8604 Real) )(exists ((|v10:7_st| RealState) (val!8605 Real) )(exists ((|v9:8_st| RealState) (val!8606 Real) )(exists ((|v8:9_st| RealState) (val!8607 Real) )(exists ((|v7:10_st| RealState) (val!8608 Real) )(exists ((|v6:11_st| RealState) (val!8609 Real) )(forall ((|v5:12| Real) )(forall ((|v4:13| Real) )(forall ((|v3:14| Real) )(forall ((|v2:15| Real) )(forall ((|v1:16| Real) )(forall ((|v0:17| Real) )(let ((?x3334 (* 3.0 |v0:17|)))
 (let ((?x1863 (* 0.0 |v12:5|)))
 (let ((?x160 (+ (+ (+ (* 2.0 (rval2 |v8:9_st|)) (* 16.0 (rval2 |v6:11_st|))) ?x1863) ?x3334)))
 (let ((?x521 (- 18.0)))
 (let ((?x964 (- 20.0)))
 (let ((?x3345 (* ?x964 |v4:13|)))
 (let ((?x2076 (* 19.0 |v12:5|)))
 (let ((?x2720 (+ (+ (+ (* (- 15.0) (rval2 |v7:10_st|)) (* ?x964 (rval2 |v9:8_st|))) ?x2076) ?x3345)))
 (let ((?x2699 (- 9.0)))
 (let ((?x1451 (- 10.0)))
 (let ((?x129 (* ?x1451 |v1:16|)))
 (let ((?x1171 (+ (+ (* 0.0 (rval2 |v11:6_st|)) (* 20.0 (rval2 |v8:9_st|))) (* (- 14.0) (rval2 |v10:7_st|)))))
 (let ((?x295 (- 11.0)))
 (let ((?x2046 (* 15.0 |v5:12|)))
 (let ((?x141 (+ (+ (+ (* 11.0 |v15:2|) (* (- 16.0) |v0:17|)) (* (- 15.0) |v3:14|)) ?x2046)))
 (let (($x834 (and (and (<= ?x141 ?x295) (<= (+ ?x1171 ?x129) ?x2699)) (and (<= ?x2720 ?x521) (<= ?x160 14.0)))))
 (let ((?x3141 (- 3.0)))
 (let ((?x2788 (+ (+ (+ (* 2.0 (rval2 |v11:6_st|)) (* 0.0 |v15:2|)) (* 6.0 |v5:12|)) (* (- 17.0) (rval2 |v8:9_st|)))))
 (let ((?x167 (+ (+ (+ (* 0.0 |v5:12|) (* 11.0 (rval2 |v6:11_st|))) (* ?x521 |v12:5|)) (* (- 14.0) (rval2 |v7:10_st|)))))
 (let ((?x1292 (- 13.0)))
 (let ((?x2246 (* ?x1292 |v0:17|)))
 (let ((?x3055 (- 2.0)))
 (let ((?x516 (* ?x3055 |v5:12|)))
 (let (($x2061 (<= (+ (+ (+ (* 13.0 (rval2 |v11:6_st|)) (* (- 12.0) |v4:13|)) ?x516) ?x2246) ?x295)))
 (let ((?x2910 (- 6.0)))
 (let ((?x34 (* 4.0 |v15:2|)))
 (let (($x2373 (<= (+ (+ (+ (* ?x3141 |v12:5|) (* 0.0 |v15:2|)) (* 5.0 |v13:4|)) ?x34) ?x2910)))
 (let ((?x361 (- 7.0)))
 (let ((?x3176 (+ (+ (+ (* ?x3141 (rval2 |v8:9_st|)) (* 18.0 (rval2 |v9:8_st|))) (* ?x361 |v16:1|)) (* 5.0 (rval2 |v11:6_st|)))))
 (let ((?x2719 (rval2 |v8:9_st|)))
 (let ((?x535 (- 19.0)))
 (let ((?x2494 (* ?x535 ?x2719)))
 (let (($x2860 (<= (+ (+ (+ (* 18.0 (rval2 |v10:7_st|)) (* (- 12.0) |v4:13|)) ?x2494) |v1:16|) 2.0)))
 (let ((?x3385 (* 3.0 |v17:0|)))
 (let ((?x1874 (+ (+ (+ (* (- 5.0) |v15:2|) (* 3.0 |v13:4|)) (* (- 12.0) |v0:17|)) ?x3385)))
 (let ((?x2547 (+ (+ (+ (* 20.0 (rval2 |v11:6_st|)) (* 14.0 |v5:12|)) (* (- 17.0) |v2:15|)) (* 12.0 |v17:0|))))
 (let ((?x3125 (- 15.0)))
 (let (($x1348 (<= (+ (+ (+ ?x2494 (* 6.0 |v16:1|)) |v5:12|) (* (- 14.0) |v14:3|)) ?x3125)))
 (let (($x1352 (or (or (or $x1348 (<= ?x2547 6.0)) (or (<= ?x1874 12.0) $x2860)) (or (and (<= ?x3176 ?x361) $x2373) (or $x2061 (<= ?x167 18.0))))))
 (let ((?x3239 (- 12.0)))
 (let ((?x2562 (+ (+ (+ (* 18.0 (rval2 |v6:11_st|)) (* 7.0 |v4:13|)) (* ?x964 |v0:17|)) (* ?x3239 (rval2 |v7:10_st|)))))
 (let ((?x1708 (* 20.0 |v3:14|)))
 (let (($x2431 (<= (+ (+ (+ (* (- 5.0) |v3:14|) (* ?x295 |v5:12|)) (* ?x1292 |v17:0|)) ?x1708) 9.0)))
 (let ((?x2902 (* ?x3055 |v1:16|)))
 (let ((?x169 (- 5.0)))
 (let ((?x408 (* ?x169 |v5:12|)))
 (let (($x342 (<= (+ (+ (+ (* (- 1.0) |v0:17|) (* 5.0 (rval2 |v10:7_st|))) ?x408) ?x2902) 4.0)))
 (let ((?x2044 (* 13.0 |v3:14|)))
 (let (($x323 (<= (+ (+ (+ (* ?x361 (rval2 |v9:8_st|)) |v4:13|) (* (- 14.0) |v13:4|)) ?x2044) ?x2910)))
 (let ((?x2004 (* 17.0 |v13:4|)))
 (let (($x32 (<= (+ (+ (+ (* ?x1451 |v5:12|) (* 0.0 |v2:15|)) (* 3.0 |v15:2|)) ?x2004) 2.0)))
 (let ((?x3072 (* 5.0 |v0:17|)))
 (let ((?x1397 (- 14.0)))
 (let ((?x2643 (* ?x1397 |v4:13|)))
 (let ((?x2375 (+ (+ (+ (* 0.0 (rval2 |v10:7_st|)) (* 8.0 (rval2 |v11:6_st|))) ?x2643) ?x3072)))
 (let ((?x747 (+ (+ (+ (* (- 16.0) |v17:0|) (* ?x295 (rval2 |v9:8_st|))) |v16:1|) (* ?x169 |v12:5|))))
 (let ((?x796 (- 8.0)))
 (let ((?x2001 (* ?x796 |v0:17|)))
 (let ((?x2402 (+ (+ (+ (* ?x964 |v2:15|) (* 20.0 |v2:15|)) (* ?x1292 (rval2 |v7:10_st|))) ?x2001)))
 (let (($x1791 (or (or (<= ?x2402 ?x964) (<= ?x747 3.0)) (or (<= ?x2375 3.0) $x32))))
 (let ((?x1632 (- 4.0)))
 (let ((?x2186 (* ?x1632 |v5:12|)))
 (let (($x2674 (<= (+ (+ (+ (* ?x3141 (rval2 |v9:8_st|)) (* (- 16.0) |v12:5|)) ?x1863) ?x2186) ?x796)))
 (let ((?x700 (+ (+ (+ (* ?x3055 (rval2 |v11:6_st|)) (* 5.0 |v1:16|)) (* ?x796 |v13:4|)) (* ?x1451 (rval2 |v7:10_st|)))))
 (let ((?x2154 (* ?x2699 |v5:12|)))
 (let ((?x819 (+ (+ (+ (* ?x1632 (rval2 |v10:7_st|)) (* 3.0 |v2:15|)) (* 15.0 ?x2719)) ?x2154)))
 (let (($x2462 (or (<= (+ (+ (+ (* 4.0 |v16:1|) (* ?x796 |v14:3|)) |v14:3|) ?x1863) 2.0) (<= ?x819 ?x964))))
 (let ((?x1641 (* ?x796 |v13:4|)))
 (let ((?x817 (+ (+ (* (- 16.0) (rval2 |v11:6_st|)) (* 6.0 |v1:16|)) (* ?x2910 (rval2 |v7:10_st|)))))
 (let ((?x821 (+ (+ (+ (* 5.0 |v15:2|) |v13:4|) (* 0.0 |v4:13|)) (* (- 17.0) |v14:3|))))
 (let ((?x1505 (+ (+ (+ (* ?x3239 |v3:14|) (* 0.0 |v1:16|)) (* ?x3125 |v2:15|)) (* ?x1397 |v0:17|))))
 (let (($x3358 (<= ?x1505 ?x295)))
 (let ((?x2964 (+ (+ (+ (* ?x3239 |v5:12|) (* ?x521 (rval2 |v11:6_st|))) (* 18.0 |v17:0|)) (* ?x1292 (rval2 |v11:6_st|)))))
 (let (($x2520 (and (and (<= ?x2964 ?x796) $x3358) (or (<= ?x821 ?x2699) (<= (+ ?x817 ?x1641) ?x964)))))
 (let (($x3179 (and (and $x2520 (or $x2462 (or (<= ?x700 4.0) $x2674))) (or $x1791 (and (or $x323 $x342) (or $x2431 (<= ?x2562 ?x3239)))))))
 (let ((?x1754 (+ (+ (+ (* 14.0 ?x2719) (* ?x3141 |v15:2|)) (* ?x1397 |v5:12|)) (* ?x1292 |v13:4|))))
 (let ((?x2470 (rval2 |v7:10_st|)))
 (let ((?x162 (* ?x964 ?x2470)))
 (let (($x1517 (<= (+ (+ (+ (* ?x535 |v12:5|) (* ?x3055 |v3:14|)) (* ?x3239 |v1:16|)) ?x162) ?x169)))
 (let ((?x3131 (rval2 |v9:8_st|)))
 (let ((?x2132 (* 17.0 ?x3131)))
 (let ((?x180 (+ (+ (+ (* 7.0 |v16:1|) (* 20.0 (rval2 |v6:11_st|))) (* 11.0 |v12:5|)) ?x2132)))
 (let ((?x2485 (rval2 |v6:11_st|)))
 (let ((?x587 (* 17.0 ?x2485)))
 (let (($x2899 (<= (+ (+ (+ (* 3.0 |v12:5|) (* 15.0 |v3:14|)) (* 18.0 |v17:0|)) ?x587) 5.0)))
 (let ((?x2694 (+ (+ (+ (* 10.0 ?x3131) (* ?x964 |v12:5|)) (* 5.0 ?x3131)) (* 15.0 ?x3131))))
 (let ((?x733 (+ (+ (+ (* 20.0 |v4:13|) (* (- 17.0) ?x2470)) (* 0.0 |v4:13|)) (* (- 16.0) ?x2470))))
 (let ((?x1473 (* ?x521 |v12:5|)))
 (let (($x3375 (<= (+ (+ (+ (* 19.0 ?x2485) (* (- 1.0) |v13:4|)) (* ?x964 |v5:12|)) ?x1473) 18.0)))
 (let ((?x2486 (* ?x1292 |v17:0|)))
 (let (($x483 (<= (+ (+ (+ (* ?x1451 (rval2 |v11:6_st|)) (* ?x2910 |v17:0|)) (* ?x169 |v1:16|)) ?x2486) 10.0)))
 (let (($x3146 (and (or $x483 (and $x3375 (<= ?x733 14.0))) (or (or (<= ?x2694 8.0) $x2899) (and (<= ?x180 20.0) $x1517)))))
 (let ((?x268 (+ (+ (+ (* (- 1.0) |v15:2|) (* (- 1.0) ?x2470)) (* ?x3239 |v12:5|)) ?x162)))
 (let ((?x1358 (* ?x1397 |v3:14|)))
 (let (($x2447 (<= (+ (+ (+ (* 15.0 |v3:14|) (* 0.0 |v16:1|)) (* ?x535 ?x3131)) ?x1358) ?x1632)))
 (let ((?x3067 (* ?x3141 ?x3131)))
 (let (($x350 (<= (+ (+ (+ (* 0.0 |v16:1|) (* 16.0 ?x2719)) (* 6.0 |v14:3|)) ?x3067) ?x964)))
 (let ((?x165 (* 12.0 |v13:4|)))
 (let (($x798 (<= (+ (+ (+ (* 15.0 ?x2485) (* 7.0 |v14:3|)) (* 18.0 |v17:0|)) ?x165) ?x295)))
 (let ((?x540 (+ (+ (+ (* (- 17.0) |v13:4|) (* ?x1292 |v5:12|)) (* 12.0 |v2:15|)) (* 20.0 |v17:0|))))
 (let ((?x2214 (+ (+ (+ (* ?x796 |v5:12|) ?x2046) (* 20.0 |v13:4|)) (* (- 17.0) (rval2 |v10:7_st|)))))
 (let ((?x355 (* 7.0 |v3:14|)))
 (let ((?x1622 (+ (+ (+ (* 2.0 ?x2470) (* ?x521 |v14:3|)) (* 8.0 (rval2 |v10:7_st|))) ?x355)))
 (let ((?x2659 (* 5.0 |v3:14|)))
 (let ((?x2594 (+ (+ (+ (* (- 1.0) |v3:14|) (* 8.0 |v3:14|)) (* 7.0 (rval2 |v10:7_st|))) ?x2659)))
 (let (($x304 (or (or (<= ?x2594 6.0) (<= ?x1622 ?x2910)) (and (<= ?x2214 7.0) (<= ?x540 ?x3239)))))
 (let (($x2998 (or (or $x304 (and (and $x798 $x350) (and $x2447 (<= ?x268 8.0)))) $x3146)))
 (let (($x2310 (or (or $x2998 (<= ?x1754 ?x169)) (or $x3179 (or $x1352 (and (<= ?x2788 ?x3141) $x834))))))
 (let (($x785 (not (= |v6:11_st| (RMk1 val!8609)))))
 (let (($x1017 (not (= |v7:10_st| (RMk1 val!8608)))))
 (let (($x2912 (not (= |v8:9_st| (RMk1 val!8607)))))
 (let (($x2702 (not (= |v9:8_st| (RMk1 val!8606)))))
 (let (($x1978 (not (= |v10:7_st| (RMk1 val!8605)))))
 (let (($x891 (not (= |v11:6_st| (RMk1 val!8604)))))
 (and $x891 $x1978 $x2702 $x2912 $x1017 $x785 $x2310))))))))))))))))))))))))))))))))))))))))))))))))))))))))))))))))))))))))))))))))))))))))))))))))))))))))))))))))))))
 )
 )
 )
 )
 )
 )
 )
 )
 )
 )
 )
 )
 )
 )
 )
 )
 )
 )
(check-sat)
